<?xml version="1.0" encoding="UTF-8"?><osil xmlns="os.optimizationservices.org"   xmlns:xsi="http://www.w3.org/2001/XMLSchema-instance" xsi:schemaLocation="os.optimizationservices.org http://www.optimizationservices.org/schemas/2.0/OSiL.xsd" ><instanceHeader><name>q_40_0_25_1</name></instanceHeader><instanceData><variables numberOfVariables="40"><var name="x1" ub="1"/><var name="x2" ub="1"/><var name="x3" ub="1"/><var name="x4" ub="1"/><var name="x5" ub="1"/><var name="x6" ub="1"/><var name="x7" ub="1"/><var name="x8" ub="1"/><var name="x9" ub="1"/><var name="x10" ub="1"/><var name="x11" ub="1"/><var name="x12" ub="1"/><var name="x13" ub="1"/><var name="x14" ub="1"/><var name="x15" ub="1"/><var name="x16" ub="1"/><var name="x17" ub="1"/><var name="x18" ub="1"/><var name="x19" ub="1"/><var name="x20" ub="1"/><var name="x21" ub="1"/><var name="x22" ub="1"/><var name="x23" ub="1"/><var name="x24" ub="1"/><var name="x25" ub="1"/><var name="x26" ub="1"/><var name="x27" ub="1"/><var name="x28" ub="1"/><var name="x29" ub="1"/><var name="x30" ub="1"/><var name="x31" ub="1"/><var name="x32" ub="1"/><var name="x33" ub="1"/><var name="x34" ub="1"/><var name="x35" ub="1"/><var name="x36" ub="1"/><var name="x37" ub="1"/><var name="x38" ub="1"/><var name="x39" ub="1"/><var name="x40" ub="1"/></variables><objectives numberOfObjectives="1"><obj maxOrMin="min" name="defObj_x41" numberOfObjCoef="40"><coef idx="0">.9726</coef><coef idx="1">.5786</coef><coef idx="2">-.3041</coef><coef idx="3">.5286</coef><coef idx="4">-.6138</coef><coef idx="5">-.8712</coef><coef idx="6">-.9096</coef><coef idx="7">-.707</coef><coef idx="8">.6138</coef><coef idx="9">.312</coef><coef idx="10">-.5107</coef><coef idx="11">-.3513</coef><coef idx="12">.9673</coef><coef idx="13">.2275</coef><coef idx="14">-.415</coef><coef idx="15">-8.9e-3</coef><coef idx="16">.4723</coef><coef idx="17">-.9209</coef><coef idx="18">-.9687</coef><coef idx="19">-4.3e-2</coef><coef idx="20">.5532</coef><coef idx="21">.8139</coef><coef idx="22">.8304</coef><coef idx="23">-.3323</coef><coef idx="24">-.4014</coef><coef idx="25">.6574</coef><coef idx="26">-8.13e-2</coef><coef idx="27">-.9703</coef><coef idx="28">-.3218</coef><coef idx="29">-.8836</coef><coef idx="30">-.8145</coef><coef idx="31">.3035</coef><coef idx="32">-.2096</coef><coef idx="33">.2399</coef><coef idx="34">.6504</coef><coef idx="35">-.3218</coef><coef idx="36">-.3831</coef><coef idx="37">-.2782</coef><coef idx="38">-.1766</coef><coef idx="39">-7.81e-2</coef></obj></objectives><quadraticCoefficients  numberOfQuadraticTerms="205" ><qTerm  idx="-1"  idxOne="0"  idxTwo="3"  coef="-.6117"/><qTerm  idx="-1"  idxOne="0"  idxTwo="5"  coef="-1.8129"/><qTerm  idx="-1"  idxOne="0"  idxTwo="10"  coef="1.5617"/><qTerm  idx="-1"  idxOne="0"  idxTwo="37"  coef="-3.23e-2"/><qTerm  idx="-1"  idxOne="1"  idxTwo="6"  coef="-1.239"/><qTerm  idx="-1"  idxOne="1"  idxTwo="11"  coef="-1.2112"/><qTerm  idx="-1"  idxOne="1"  idxTwo="16"  coef="1.9639"/><qTerm  idx="-1"  idxOne="1"  idxTwo="22"  coef="-.3188"/><qTerm  idx="-1"  idxOne="1"  idxTwo="26"  coef=".6034"/><qTerm  idx="-1"  idxOne="1"  idxTwo="27"  coef=".1008"/><qTerm  idx="-1"  idxOne="1"  idxTwo="28"  coef="6.81e-2"/><qTerm  idx="-1"  idxOne="1"  idxTwo="36"  coef=".7552"/><qTerm  idx="-1"  idxOne="1"  idxTwo="39"  coef="1.9208"/><qTerm  idx="-1"  idxOne="2"  idxTwo="17"  coef=".9493"/><qTerm  idx="-1"  idxOne="2"  idxTwo="19"  coef="-1.3125"/><qTerm  idx="-1"  idxOne="2"  idxTwo="22"  coef="-7.85e-2"/><qTerm  idx="-1"  idxOne="2"  idxTwo="23"  coef="-1.5432"/><qTerm  idx="-1"  idxOne="2"  idxTwo="26"  coef="-1.3141"/><qTerm  idx="-1"  idxOne="2"  idxTwo="30"  coef=".7231"/><qTerm  idx="-1"  idxOne="2"  idxTwo="34"  coef="-1.7315"/><qTerm  idx="-1"  idxOne="2"  idxTwo="37"  coef="1.5883"/><qTerm  idx="-1"  idxOne="3"  idxTwo="8"  coef="-1.9306"/><qTerm  idx="-1"  idxOne="3"  idxTwo="9"  coef="-.7027"/><qTerm  idx="-1"  idxOne="3"  idxTwo="10"  coef="-1.595"/><qTerm  idx="-1"  idxOne="3"  idxTwo="12"  coef="1.8998"/><qTerm  idx="-1"  idxOne="3"  idxTwo="28"  coef=".3698"/><qTerm  idx="-1"  idxOne="3"  idxTwo="39"  coef="-.9965"/><qTerm  idx="-1"  idxOne="4"  idxTwo="6"  coef=".4569"/><qTerm  idx="-1"  idxOne="4"  idxTwo="8"  coef="-1.7066"/><qTerm  idx="-1"  idxOne="4"  idxTwo="13"  coef="1.0218"/><qTerm  idx="-1"  idxOne="4"  idxTwo="15"  coef="1.0029"/><qTerm  idx="-1"  idxOne="4"  idxTwo="25"  coef="-1.445"/><qTerm  idx="-1"  idxOne="4"  idxTwo="29"  coef="1.007"/><qTerm  idx="-1"  idxOne="4"  idxTwo="30"  coef=".2078"/><qTerm  idx="-1"  idxOne="4"  idxTwo="37"  coef="-.7261"/><qTerm  idx="-1"  idxOne="5"  idxTwo="10"  coef="1.2729"/><qTerm  idx="-1"  idxOne="5"  idxTwo="11"  coef="1.6939"/><qTerm  idx="-1"  idxOne="5"  idxTwo="15"  coef=".8014"/><qTerm  idx="-1"  idxOne="5"  idxTwo="17"  coef="-1.5237"/><qTerm  idx="-1"  idxOne="5"  idxTwo="23"  coef=".3496"/><qTerm  idx="-1"  idxOne="5"  idxTwo="25"  coef="1.2302"/><qTerm  idx="-1"  idxOne="5"  idxTwo="26"  coef="-.4586"/><qTerm  idx="-1"  idxOne="5"  idxTwo="27"  coef="-1.425"/><qTerm  idx="-1"  idxOne="5"  idxTwo="29"  coef="1.3612"/><qTerm  idx="-1"  idxOne="6"  idxTwo="12"  coef="-.6297"/><qTerm  idx="-1"  idxOne="6"  idxTwo="21"  coef=".8933"/><qTerm  idx="-1"  idxOne="6"  idxTwo="26"  coef=".4493"/><qTerm  idx="-1"  idxOne="6"  idxTwo="28"  coef="-.6658"/><qTerm  idx="-1"  idxOne="6"  idxTwo="33"  coef="1.8882"/><qTerm  idx="-1"  idxOne="6"  idxTwo="35"  coef="-.2616"/><qTerm  idx="-1"  idxOne="6"  idxTwo="37"  coef="-1.4581"/><qTerm  idx="-1"  idxOne="7"  idxTwo="8"  coef="-.324"/><qTerm  idx="-1"  idxOne="7"  idxTwo="12"  coef="1.3703"/><qTerm  idx="-1"  idxOne="7"  idxTwo="15"  coef="-1.2991"/><qTerm  idx="-1"  idxOne="7"  idxTwo="18"  coef="-1.2196"/><qTerm  idx="-1"  idxOne="7"  idxTwo="21"  coef="-1.1955"/><qTerm  idx="-1"  idxOne="7"  idxTwo="26"  coef="1.4895"/><qTerm  idx="-1"  idxOne="7"  idxTwo="28"  coef="-.7938"/><qTerm  idx="-1"  idxOne="7"  idxTwo="32"  coef="-1.9104"/><qTerm  idx="-1"  idxOne="7"  idxTwo="39"  coef="-1.2694"/><qTerm  idx="-1"  idxOne="8"  idxTwo="8"  coef="1.4011"/><qTerm  idx="-1"  idxOne="8"  idxTwo="9"  coef="1.8905"/><qTerm  idx="-1"  idxOne="8"  idxTwo="10"  coef=".7072"/><qTerm  idx="-1"  idxOne="8"  idxTwo="16"  coef="1.8742"/><qTerm  idx="-1"  idxOne="8"  idxTwo="19"  coef="-.2195"/><qTerm  idx="-1"  idxOne="8"  idxTwo="28"  coef="1.1877"/><qTerm  idx="-1"  idxOne="8"  idxTwo="29"  coef=".5574"/><qTerm  idx="-1"  idxOne="8"  idxTwo="35"  coef="1.1997"/><qTerm  idx="-1"  idxOne="8"  idxTwo="36"  coef="-.1889"/><qTerm  idx="-1"  idxOne="9"  idxTwo="12"  coef="-.2684"/><qTerm  idx="-1"  idxOne="9"  idxTwo="13"  coef="-1.4674"/><qTerm  idx="-1"  idxOne="9"  idxTwo="19"  coef=".4601"/><qTerm  idx="-1"  idxOne="9"  idxTwo="27"  coef="1.4198"/><qTerm  idx="-1"  idxOne="9"  idxTwo="31"  coef="-.4359"/><qTerm  idx="-1"  idxOne="9"  idxTwo="32"  coef="1.881"/><qTerm  idx="-1"  idxOne="9"  idxTwo="33"  coef="-.9675"/><qTerm  idx="-1"  idxOne="9"  idxTwo="37"  coef="-.3335"/><qTerm  idx="-1"  idxOne="9"  idxTwo="38"  coef="-5.88e-2"/><qTerm  idx="-1"  idxOne="10"  idxTwo="10"  coef=".4723"/><qTerm  idx="-1"  idxOne="10"  idxTwo="13"  coef=".1791"/><qTerm  idx="-1"  idxOne="10"  idxTwo="14"  coef="1.9947"/><qTerm  idx="-1"  idxOne="10"  idxTwo="17"  coef="-1.1665"/><qTerm  idx="-1"  idxOne="10"  idxTwo="21"  coef="-.1645"/><qTerm  idx="-1"  idxOne="10"  idxTwo="27"  coef="1.7508"/><qTerm  idx="-1"  idxOne="10"  idxTwo="38"  coef="1.1056"/><qTerm  idx="-1"  idxOne="11"  idxTwo="13"  coef="1.3817"/><qTerm  idx="-1"  idxOne="11"  idxTwo="15"  coef=".3039"/><qTerm  idx="-1"  idxOne="11"  idxTwo="17"  coef="-.1691"/><qTerm  idx="-1"  idxOne="11"  idxTwo="19"  coef="-1.0578"/><qTerm  idx="-1"  idxOne="11"  idxTwo="21"  coef="-1.0687"/><qTerm  idx="-1"  idxOne="11"  idxTwo="32"  coef="-1.3579"/><qTerm  idx="-1"  idxOne="11"  idxTwo="35"  coef="7.66e-2"/><qTerm  idx="-1"  idxOne="11"  idxTwo="39"  coef="1.9137"/><qTerm  idx="-1"  idxOne="12"  idxTwo="18"  coef="-.9245"/><qTerm  idx="-1"  idxOne="12"  idxTwo="20"  coef="2.32e-2"/><qTerm  idx="-1"  idxOne="12"  idxTwo="24"  coef=".6547"/><qTerm  idx="-1"  idxOne="12"  idxTwo="26"  coef="1.3203"/><qTerm  idx="-1"  idxOne="12"  idxTwo="27"  coef=".9408"/><qTerm  idx="-1"  idxOne="12"  idxTwo="29"  coef=".6879"/><qTerm  idx="-1"  idxOne="12"  idxTwo="32"  coef=".2949"/><qTerm  idx="-1"  idxOne="12"  idxTwo="34"  coef="1.3733"/><qTerm  idx="-1"  idxOne="12"  idxTwo="37"  coef=".319"/><qTerm  idx="-1"  idxOne="13"  idxTwo="14"  coef=".8599"/><qTerm  idx="-1"  idxOne="13"  idxTwo="20"  coef="-1.1083"/><qTerm  idx="-1"  idxOne="13"  idxTwo="25"  coef="1.4228"/><qTerm  idx="-1"  idxOne="13"  idxTwo="27"  coef="-.2838"/><qTerm  idx="-1"  idxOne="13"  idxTwo="30"  coef="-1.5367"/><qTerm  idx="-1"  idxOne="13"  idxTwo="36"  coef="-.6437"/><qTerm  idx="-1"  idxOne="13"  idxTwo="37"  coef="-.6932"/><qTerm  idx="-1"  idxOne="14"  idxTwo="21"  coef="-1.4168"/><qTerm  idx="-1"  idxOne="14"  idxTwo="22"  coef="-1.5141"/><qTerm  idx="-1"  idxOne="14"  idxTwo="26"  coef=".4742"/><qTerm  idx="-1"  idxOne="14"  idxTwo="27"  coef="-1.2072"/><qTerm  idx="-1"  idxOne="14"  idxTwo="29"  coef="-7.75e-2"/><qTerm  idx="-1"  idxOne="14"  idxTwo="32"  coef="-1.0779"/><qTerm  idx="-1"  idxOne="14"  idxTwo="35"  coef=".1747"/><qTerm  idx="-1"  idxOne="14"  idxTwo="38"  coef="1.5078"/><qTerm  idx="-1"  idxOne="15"  idxTwo="21"  coef="-1.9394"/><qTerm  idx="-1"  idxOne="15"  idxTwo="25"  coef="-1.4524"/><qTerm  idx="-1"  idxOne="15"  idxTwo="27"  coef="-.8044"/><qTerm  idx="-1"  idxOne="15"  idxTwo="28"  coef="1.3157"/><qTerm  idx="-1"  idxOne="15"  idxTwo="29"  coef="-1.6489"/><qTerm  idx="-1"  idxOne="15"  idxTwo="32"  coef="1.4711"/><qTerm  idx="-1"  idxOne="15"  idxTwo="35"  coef="-.2181"/><qTerm  idx="-1"  idxOne="15"  idxTwo="38"  coef=".8828"/><qTerm  idx="-1"  idxOne="16"  idxTwo="22"  coef="1.9917"/><qTerm  idx="-1"  idxOne="16"  idxTwo="24"  coef="-1.6589"/><qTerm  idx="-1"  idxOne="16"  idxTwo="28"  coef="1.7145"/><qTerm  idx="-1"  idxOne="16"  idxTwo="29"  coef="1.244"/><qTerm  idx="-1"  idxOne="16"  idxTwo="32"  coef="1.46"/><qTerm  idx="-1"  idxOne="16"  idxTwo="35"  coef="1.7714"/><qTerm  idx="-1"  idxOne="16"  idxTwo="38"  coef=".7704"/><qTerm  idx="-1"  idxOne="17"  idxTwo="22"  coef="-1.0033"/><qTerm  idx="-1"  idxOne="17"  idxTwo="23"  coef="-.8107"/><qTerm  idx="-1"  idxOne="17"  idxTwo="27"  coef="-.5384"/><qTerm  idx="-1"  idxOne="17"  idxTwo="28"  coef="-.4729"/><qTerm  idx="-1"  idxOne="17"  idxTwo="30"  coef="-.1751"/><qTerm  idx="-1"  idxOne="18"  idxTwo="18"  coef="1.0388"/><qTerm  idx="-1"  idxOne="18"  idxTwo="32"  coef="1.6354"/><qTerm  idx="-1"  idxOne="18"  idxTwo="36"  coef="-.2151"/><qTerm  idx="-1"  idxOne="18"  idxTwo="38"  coef="1.9445"/><qTerm  idx="-1"  idxOne="19"  idxTwo="27"  coef="1.2432"/><qTerm  idx="-1"  idxOne="19"  idxTwo="28"  coef="-.9814"/><qTerm  idx="-1"  idxOne="19"  idxTwo="29"  coef="-.5008"/><qTerm  idx="-1"  idxOne="19"  idxTwo="39"  coef="-1.1227"/><qTerm  idx="-1"  idxOne="20"  idxTwo="20"  coef="1.8471"/><qTerm  idx="-1"  idxOne="20"  idxTwo="33"  coef="1.1057"/><qTerm  idx="-1"  idxOne="20"  idxTwo="35"  coef="-.7848"/><qTerm  idx="-1"  idxOne="21"  idxTwo="26"  coef=".216"/><qTerm  idx="-1"  idxOne="21"  idxTwo="31"  coef="-1.1369"/><qTerm  idx="-1"  idxOne="21"  idxTwo="32"  coef=".1494"/><qTerm  idx="-1"  idxOne="21"  idxTwo="33"  coef=".4863"/><qTerm  idx="-1"  idxOne="21"  idxTwo="36"  coef="-.1379"/><qTerm  idx="-1"  idxOne="21"  idxTwo="37"  coef="-1.9586"/><qTerm  idx="-1"  idxOne="21"  idxTwo="38"  coef="-1.4819"/><qTerm  idx="-1"  idxOne="21"  idxTwo="39"  coef="-.3348"/><qTerm  idx="-1"  idxOne="22"  idxTwo="22"  coef="-.6888"/><qTerm  idx="-1"  idxOne="22"  idxTwo="24"  coef="-1.1536"/><qTerm  idx="-1"  idxOne="22"  idxTwo="26"  coef="1.0998"/><qTerm  idx="-1"  idxOne="22"  idxTwo="29"  coef="-.1755"/><qTerm  idx="-1"  idxOne="22"  idxTwo="32"  coef=".6032"/><qTerm  idx="-1"  idxOne="22"  idxTwo="35"  coef="-.4675"/><qTerm  idx="-1"  idxOne="22"  idxTwo="39"  coef="1.8637"/><qTerm  idx="-1"  idxOne="23"  idxTwo="24"  coef="1.849"/><qTerm  idx="-1"  idxOne="23"  idxTwo="26"  coef="-.1725"/><qTerm  idx="-1"  idxOne="23"  idxTwo="34"  coef="-1.8456"/><qTerm  idx="-1"  idxOne="23"  idxTwo="39"  coef="1.3599"/><qTerm  idx="-1"  idxOne="24"  idxTwo="25"  coef="-.4074"/><qTerm  idx="-1"  idxOne="24"  idxTwo="28"  coef="1.5893"/><qTerm  idx="-1"  idxOne="24"  idxTwo="29"  coef="1.4957"/><qTerm  idx="-1"  idxOne="24"  idxTwo="30"  coef="1.6402"/><qTerm  idx="-1"  idxOne="24"  idxTwo="31"  coef="1.0944"/><qTerm  idx="-1"  idxOne="24"  idxTwo="32"  coef="1.7884"/><qTerm  idx="-1"  idxOne="24"  idxTwo="38"  coef="1.961"/><qTerm  idx="-1"  idxOne="25"  idxTwo="27"  coef="-1.3184"/><qTerm  idx="-1"  idxOne="25"  idxTwo="29"  coef="1.4843"/><qTerm  idx="-1"  idxOne="25"  idxTwo="33"  coef="-.9647"/><qTerm  idx="-1"  idxOne="25"  idxTwo="34"  coef="-1.0288"/><qTerm  idx="-1"  idxOne="26"  idxTwo="26"  coef="1.47e-2"/><qTerm  idx="-1"  idxOne="26"  idxTwo="30"  coef="1.1633"/><qTerm  idx="-1"  idxOne="26"  idxTwo="33"  coef=".3278"/><qTerm  idx="-1"  idxOne="27"  idxTwo="31"  coef=".8943"/><qTerm  idx="-1"  idxOne="27"  idxTwo="36"  coef="-.4439"/><qTerm  idx="-1"  idxOne="28"  idxTwo="29"  coef="-.5732"/><qTerm  idx="-1"  idxOne="28"  idxTwo="30"  coef="-.7633"/><qTerm  idx="-1"  idxOne="28"  idxTwo="32"  coef="-.5318"/><qTerm  idx="-1"  idxOne="28"  idxTwo="34"  coef=".5493"/><qTerm  idx="-1"  idxOne="28"  idxTwo="37"  coef="1.2552"/><qTerm  idx="-1"  idxOne="29"  idxTwo="33"  coef="1.3728"/><qTerm  idx="-1"  idxOne="29"  idxTwo="34"  coef="-.6359"/><qTerm  idx="-1"  idxOne="29"  idxTwo="35"  coef=".5195"/><qTerm  idx="-1"  idxOne="29"  idxTwo="36"  coef="-.2931"/><qTerm  idx="-1"  idxOne="29"  idxTwo="39"  coef="1.815"/><qTerm  idx="-1"  idxOne="30"  idxTwo="30"  coef="1.506"/><qTerm  idx="-1"  idxOne="30"  idxTwo="35"  coef="1.778"/><qTerm  idx="-1"  idxOne="30"  idxTwo="36"  coef="-1.78"/><qTerm  idx="-1"  idxOne="31"  idxTwo="33"  coef=".8361"/><qTerm  idx="-1"  idxOne="32"  idxTwo="37"  coef="-1.1109"/><qTerm  idx="-1"  idxOne="33"  idxTwo="37"  coef=".8005"/><qTerm  idx="-1"  idxOne="35"  idxTwo="37"  coef="-1.5423"/><qTerm  idx="-1"  idxOne="35"  idxTwo="38"  coef=".6317"/><qTerm  idx="-1"  idxOne="36"  idxTwo="37"  coef=".5333"/><qTerm  idx="-1"  idxOne="37"  idxTwo="39"  coef="-1.1007"/><qTerm  idx="-1"  idxOne="38"  idxTwo="38"  coef="1.8753"/><qTerm  idx="-1"  idxOne="38"  idxTwo="39"  coef="-.9728"/></quadraticCoefficients></instanceData></osil>
